<number of tasks>
50

<cycle time>
1000

<order strength>
0.604


<task times>
1 414
2 763
3 489
4 578
5 546
6 448
7 527
8 465
9 526
10 527
11 363
12 680
13 468
14 582
15 656
16 570
17 711
18 472
19 404
20 530
21 362
22 502
23 304
24 717
25 522
26 521
27 616
28 369
29 406
30 877
31 508
32 596
33 288
34 353
35 528
36 425
37 343
38 292
39 639
40 472
41 595
42 480
43 610
44 338
45 296
46 629
47 735
48 597
49 577
50 380

<precedence relations>
1,9
2,6
2,7
3,7
3,8
3,10
4,7
4,9
4,10
5,19
6,11
6,15
6,27
7,11
7,12
7,15
8,11
8,14
8,22
9,11
9,12
10,11
10,12
10,13
10,14
10,15
11,16
11,17
12,17
12,19
13,16
13,18
14,20
14,23
14,36
15,30
15,38
16,21
16,37
17,25
17,32
18,22
18,30
18,34
19,21
19,23
19,24
21,26
21,29
21,30
21,31
22,26
22,33
22,36
23,41
23,44
23,46
24,27
24,28
24,32
25,49
26,40
26,47
27,33
27,34
28,34
28,35
29,33
29,39
29,44
30,41
30,48
31,34
32,39
33,45
33,49
34,36
34,38
35,36
35,37
36,39
36,40
37,39
37,41
37,42
37,44
38,39
38,43
39,46
39,47
40,44
40,48
41,45
41,47
42,46
43,49
43,50
46,48
46,50
47,49
47,50

<end>
